Route #1: 1 81 83 125 34 87 73 4 131 18 1
Route #2 1 123 53 102 132 12 115 128 1
Route #3 1 130 117 90 114 26 106 42 35 92 1
Route #4 1 61 59 15 10 48 17 52 1
Route #5 1 3 40 74 19 60 97 14 7 109 91 1
Route #6 1 80 44 112 105 100 47 22 46 1
Route #7 1 25 38 89 103 95 94 54 67 98 6 78 122 8 69 82 16 64 1
Route #8 1 24 31 9 85 108 45 71 5 28 23 56 127 68 21 29 76 99 66 43 37 121 1
Route #9 1 113 49 65 118 50 72 62 2 70 1
Route #10 1 32 93 30 120 58 107 86 77 1
Route #11 1 20 39 51 75 88 79 110 84 1
Route #12 1 101 41 96 119 133 1
Route #13 1 57 124 111 55 33 63 11 104 1
Route #14 1 27 36 13 134 116 126 129 1
Cost: 11730